# Solution for model BELL3A
# Objective value = 8.7843031600000011e+05
c1 0
c2 0
c3 0
c4 0
c5 0
c6 0
c7 0
c8 0
c9 0
c10 0
c11 0
c12 0
c13 0
c14 0
c15 0
c16 0
c17 0
c18 0
c19 0
c20 0
c21 0
c22 0
c23 0
d1 0
d2 0
d3 0
d4 0
d5 0
d6 0
d7 0
d9 0
d10 0
d12 0
d13 0
d15 0
d16 0
d17 0
d20 0
d21 0
h1 0
h2 0
h3 0
h4 0
h5 0
h6 0
h7 0
h9 0
h10 0
h12 0
h13 0
h15 0
h16 0
h17 0
h20 0
h21 0
g1 0
g2 0
g3 0
g4 0
g5 0
g6 0
g7 2
g9 21
g10 0
g12 2
g13 4
g15 4
g16 6
g17 1
g20 25
g21 8
a1 1112
a2 1012
a3 962
a4 762
a5 752
a6 270
a7 120
a8 10
a9 0
a10 466
a11 166
a12 116
a13 4
a14 300
a15 16
a16 12
a17 6
a18 20
a19 0
a20 0
a21 8
a22 100
a23 50
b1 1748
b2 1748
b3 1748
b4 1748
b5 1748
b6 1340
b7 740
b8 500
b9 500
b10 144
b11 144
b12 144
b13 96
b14 0
b15 264
b16 168
b17 24
b18 0
b19 600
b20 600
b21 192
b22 0
b23 0
f1 0
f2 0
f3 0
f4 0
f5 0
f6 0
f7 48
f9 500
f10 0
f12 48
f13 96
f15 96
f16 144
f17 24
f20 600
f21 192
